\* ODT *\
Minimize
OBJ: X0 + X1 + X10 + X11 + X12 + X13 + X14 + X15 + X16 + X17 + X18 + X19 + X2
 + X20 + X21 + X22 + X23 + X3 + X4 + X5 + X6 + X7 + X8 + X9
Subject To
Cover_0: X18 >= 1
Cover_1: X1 + X19 + X6 >= 1
Cover_10: X17 + X18 + X2 + X20 >= 1
Cover_100: X0 + X18 + X20 + X6 + X8 >= 1
Cover_101: X0 + X17 + X18 + X2 + X20 + X6 + X8 >= 1
Cover_102: X0 + X11 + X15 + X17 + X18 + X2 + X20 + X6 + X8 >= 1
Cover_103: X0 + X16 + X17 + X18 + X2 + X20 + X6 + X7 + X8 >= 1
Cover_104: X0 + X15 + X18 + X20 + X6 + X8 >= 1
Cover_105: X0 + X16 + X18 + X20 + X6 + X7 + X8 >= 1
Cover_106: X0 + X15 + X18 + X2 + X20 + X6 + X7 + X8 >= 1
Cover_107: X0 + X11 + X17 + X18 + X2 + X20 + X6 + X8 >= 1
Cover_108: X0 + X16 + X20 + X6 + X7 + X8 >= 1
Cover_109: X0 + X16 + X17 + X18 + X2 + X20 + X6 + X7 + X8 >= 1
Cover_11: X11 + X15 + X17 + X18 + X2 + X20 >= 1
Cover_110: X0 + X11 + X17 + X2 + X20 + X6 + X8 >= 1
Cover_111: X20 >= 1
Cover_112: X18 + X20 + X8 >= 1
Cover_113: X1 + X19 + X20 + X6 + X8 >= 1
Cover_114: X20 + X6 + X8 >= 1
Cover_115: X18 + X19 >= 1
Cover_116: X1 + X19 + X20 + X8 >= 1
Cover_117: X17 + X18 + X2 >= 1
Cover_118: X11 + X15 + X17 + X18 + X2 >= 1
Cover_119: X16 + X17 + X18 + X2 + X7 >= 1
Cover_12: X16 + X17 + X18 + X2 + X20 + X7 >= 1
Cover_120: X15 + X18 + X2 + X7 >= 1
Cover_121: X11 + X17 + X18 + X2 >= 1
Cover_122: X16 + X17 + X18 + X2 + X7 >= 1
Cover_123: X11 + X17 + X2 >= 1
Cover_124: X20 >= 1
Cover_125: X18 + X20 + X8 >= 1
Cover_126: X0 + X1 + X19 + X20 + X6 + X8 >= 1
Cover_127: X1 + X19 >= 1
Cover_128: X0 + X20 + X6 + X8 >= 1
Cover_129: X18 + X19 >= 1
Cover_13: X15 + X18 + X20 >= 1
Cover_130: X1 + X19 + X20 + X8 >= 1
Cover_131: X17 + X18 + X2 >= 1
Cover_132: X11 + X15 + X17 + X18 + X2 >= 1
Cover_133: X16 + X17 + X18 + X2 + X7 >= 1
Cover_134: X15 + X18 >= 1
Cover_135: X16 + X18 + X7 >= 1
Cover_136: X15 + X18 + X2 + X7 >= 1
Cover_137: X11 + X17 + X18 + X2 >= 1
Cover_138: X16 + X7 >= 1
Cover_139: X16 + X17 + X18 + X2 + X7 >= 1
Cover_14: X16 + X18 + X20 + X7 >= 1
Cover_140: X11 + X17 + X2 >= 1
Cover_141: X18 + X19 + X20 >= 1
Cover_142: X20 + X8 >= 1
Cover_143: X0 + X18 + X20 + X6 + X8 >= 1
Cover_144: X18 + X19 >= 1
Cover_145: X18 >= 1
Cover_146: X18 + X19 >= 1
Cover_147: X0 + X18 + X20 + X6 + X8 >= 1
Cover_148: X18 + X19 >= 1
Cover_149: X18 + X19 >= 1
Cover_15: X15 + X18 + X2 + X20 + X7 >= 1
Cover_150: X18 + X20 + X8 >= 1
Cover_151: X17 + X19 + X2 >= 1
Cover_152: X11 + X15 + X17 + X19 + X2 >= 1
Cover_153: X16 + X17 + X19 + X2 + X7 >= 1
Cover_154: X15 + X19 >= 1
Cover_155: X16 + X19 + X7 >= 1
Cover_156: X15 + X19 + X2 + X7 >= 1
Cover_157: X11 + X17 + X19 + X2 >= 1
Cover_158: X16 + X18 + X19 + X7 >= 1
Cover_159: X16 + X17 + X19 + X2 + X7 >= 1
Cover_16: X11 + X17 + X18 + X2 + X20 >= 1
Cover_160: X11 + X17 + X18 + X19 + X2 >= 1
Cover_161: X1 + X19 >= 1
Cover_162: X1 + X19 + X20 + X8 >= 1
Cover_163: X20 + X8 >= 1
Cover_164: X1 + X19 + X20 + X8 >= 1
Cover_165: X1 + X19 + X20 + X8 >= 1
Cover_166: X1 + X19 + X20 + X8 >= 1
Cover_167: X18 + X20 + X8 >= 1
Cover_168: X1 + X17 + X18 + X19 + X2 + X20 + X8 >= 1
Cover_169: X1 + X11 + X15 + X17 + X18 + X19 + X2 + X20 + X8 >= 1
Cover_17: X16 + X20 + X7 >= 1
Cover_170: X1 + X16 + X17 + X18 + X19 + X2 + X20 + X7 + X8 >= 1
Cover_171: X1 + X15 + X18 + X19 + X20 + X8 >= 1
Cover_172: X1 + X16 + X18 + X19 + X20 + X7 + X8 >= 1
Cover_173: X1 + X15 + X18 + X19 + X2 + X20 + X7 + X8 >= 1
Cover_174: X1 + X11 + X17 + X18 + X19 + X2 + X20 + X8 >= 1
Cover_175: X1 + X16 + X19 + X20 + X7 + X8 >= 1
Cover_176: X1 + X16 + X17 + X18 + X19 + X2 + X20 + X7 + X8 >= 1
Cover_177: X1 + X11 + X17 + X19 + X2 + X20 + X8 >= 1
Cover_178: X17 + X18 + X2 + X20 >= 1
Cover_179: X17 + X2 + X20 + X8 >= 1
Cover_18: X16 + X17 + X18 + X2 + X20 + X7 >= 1
Cover_180: X0 + X1 + X17 + X18 + X19 + X2 + X20 + X6 + X8 >= 1
Cover_181: X17 + X18 + X2 >= 1
Cover_182: X1 + X17 + X18 + X19 + X2 >= 1
Cover_183: X17 + X18 + X2 >= 1
Cover_184: X0 + X17 + X18 + X2 + X20 + X6 + X8 >= 1
Cover_185: X17 + X18 + X2 >= 1
Cover_186: X17 + X18 + X2 >= 1
Cover_187: X17 + X19 + X2 >= 1
Cover_188: X1 + X17 + X18 + X19 + X2 + X20 + X8 >= 1
Cover_189: X11 + X15 >= 1
Cover_19: X11 + X17 + X2 + X20 >= 1
Cover_190: X16 + X7 >= 1
Cover_191: X15 + X17 + X2 >= 1
Cover_192: X16 + X17 + X2 + X7 >= 1
Cover_193: X15 + X17 + X7 >= 1
Cover_194: X11 >= 1
Cover_195: X16 + X17 + X18 + X2 + X7 >= 1
Cover_196: X16 + X7 >= 1
Cover_197: X11 + X18 >= 1
Cover_198: X11 + X15 + X17 + X18 + X2 + X20 >= 1
Cover_199: X11 + X15 + X17 + X2 + X20 + X8 >= 1
Cover_2: X20 >= 1
Cover_20: X18 >= 1
Cover_200: X0 + X1 + X11 + X15 + X17 + X18 + X19 + X2 + X20 + X6 + X8 >= 1
Cover_201: X11 + X15 + X17 + X18 + X2 >= 1
Cover_202: X1 + X11 + X15 + X17 + X18 + X19 + X2 >= 1
Cover_203: X11 + X15 + X17 + X18 + X2 >= 1
Cover_204: X0 + X11 + X15 + X17 + X18 + X2 + X20 + X6 + X8 >= 1
Cover_205: X11 + X15 + X17 + X18 + X2 >= 1
Cover_206: X11 + X15 + X17 + X18 + X2 >= 1
Cover_207: X11 + X15 + X17 + X19 + X2 >= 1
Cover_208: X1 + X11 + X15 + X17 + X18 + X19 + X2 + X20 + X8 >= 1
Cover_209: X11 + X15 >= 1
Cover_21: X18 + X20 + X8 >= 1
Cover_210: X11 + X15 + X16 + X7 >= 1
Cover_211: X11 + X17 + X2 >= 1
Cover_212: X11 + X15 + X16 + X17 + X2 + X7 >= 1
Cover_213: X11 + X17 + X7 >= 1
Cover_214: X11 + X15 + X16 + X17 + X18 + X2 + X7 >= 1
Cover_215: X11 + X15 + X16 + X7 >= 1
Cover_216: X16 + X17 + X18 + X2 + X20 + X7 >= 1
Cover_217: X16 + X17 + X2 + X20 + X7 + X8 >= 1
Cover_218: X0 + X1 + X16 + X17 + X18 + X19 + X2 + X20 + X6 + X7 + X8 >= 1
Cover_219: X16 + X17 + X18 + X2 + X7 >= 1
Cover_22: X1 + X18 + X20 + X8 >= 1
Cover_220: X1 + X16 + X17 + X18 + X19 + X2 + X7 >= 1
Cover_221: X16 + X17 + X18 + X2 + X7 >= 1
Cover_222: X0 + X16 + X17 + X18 + X2 + X20 + X6 + X7 + X8 >= 1
Cover_223: X16 + X17 + X18 + X2 + X7 >= 1
Cover_224: X16 + X17 + X18 + X2 + X7 >= 1
Cover_225: X16 + X17 + X19 + X2 + X7 >= 1
Cover_226: X1 + X16 + X17 + X18 + X19 + X2 + X20 + X7 + X8 >= 1
Cover_227: X16 + X7 >= 1
Cover_228: X11 + X15 + X16 + X7 >= 1
Cover_229: X15 + X16 + X17 + X2 + X7 >= 1
Cover_23: X18 + X20 + X8 >= 1
Cover_230: X17 + X2 >= 1
Cover_231: X15 + X17 >= 1
Cover_232: X11 + X16 + X7 >= 1
Cover_233: X17 + X18 + X2 >= 1
Cover_234: X11 + X16 + X18 + X7 >= 1
Cover_235: X15 + X18 + X20 >= 1
Cover_236: X15 + X20 + X8 >= 1
Cover_237: X0 + X1 + X15 + X18 + X19 + X20 + X6 + X8 >= 1
Cover_238: X0 + X15 + X18 + X20 + X6 + X8 >= 1
Cover_239: X15 + X18 >= 1
Cover_24: X18 + X20 + X8 >= 1
Cover_240: X15 + X19 >= 1
Cover_241: X1 + X15 + X18 + X19 + X20 + X8 >= 1
Cover_242: X15 + X17 + X2 >= 1
Cover_243: X11 + X17 + X2 >= 1
Cover_244: X15 + X16 + X17 + X2 + X7 >= 1
Cover_245: X2 + X7 >= 1
Cover_246: X11 + X15 + X17 + X2 >= 1
Cover_247: X15 + X16 + X17 + X2 + X7 >= 1
Cover_248: X11 + X15 + X17 + X18 + X2 >= 1
Cover_249: X16 + X18 + X20 + X7 >= 1
Cover_25: X18 + X20 + X8 >= 1
Cover_250: X16 + X20 + X7 + X8 >= 1
Cover_251: X0 + X1 + X16 + X18 + X19 + X20 + X6 + X7 + X8 >= 1
Cover_252: X0 + X16 + X18 + X20 + X6 + X7 + X8 >= 1
Cover_253: X16 + X18 + X7 >= 1
Cover_254: X16 + X19 + X7 >= 1
Cover_255: X1 + X16 + X18 + X19 + X20 + X7 + X8 >= 1
Cover_256: X16 + X17 + X2 + X7 >= 1
Cover_257: X11 + X15 + X16 + X17 + X2 + X7 >= 1
Cover_258: X17 + X2 >= 1
Cover_259: X15 + X2 >= 1
Cover_26: X20 + X8 >= 1
Cover_260: X11 + X16 + X17 + X2 + X7 >= 1
Cover_261: X17 + X2 >= 1
Cover_262: X11 + X16 + X17 + X18 + X2 + X7 >= 1
Cover_263: X15 + X18 + X2 + X20 + X7 >= 1
Cover_264: X15 + X2 + X20 + X7 + X8 >= 1
Cover_265: X0 + X1 + X15 + X18 + X19 + X2 + X20 + X6 + X7 + X8 >= 1
Cover_266: X15 + X18 + X2 + X7 >= 1
Cover_267: X1 + X15 + X18 + X19 + X2 + X7 >= 1
Cover_268: X15 + X18 + X2 + X7 >= 1
Cover_269: X0 + X15 + X18 + X2 + X20 + X6 + X7 + X8 >= 1
Cover_27: X17 + X2 + X20 + X8 >= 1
Cover_270: X15 + X18 + X2 + X7 >= 1
Cover_271: X15 + X18 + X2 + X7 >= 1
Cover_272: X15 + X19 + X2 + X7 >= 1
Cover_273: X1 + X15 + X18 + X19 + X2 + X20 + X7 + X8 >= 1
Cover_274: X15 + X17 + X7 >= 1
Cover_275: X11 + X17 + X7 >= 1
Cover_276: X15 + X17 >= 1
Cover_277: X2 + X7 >= 1
Cover_278: X15 + X2 >= 1
Cover_279: X11 + X15 + X17 + X7 >= 1
Cover_28: X11 + X15 + X17 + X2 + X20 + X8 >= 1
Cover_280: X15 + X18 + X2 >= 1
Cover_281: X15 + X17 >= 1
Cover_282: X11 + X15 + X17 + X18 + X7 >= 1
Cover_283: X11 + X17 + X18 + X2 + X20 >= 1
Cover_284: X11 + X17 + X2 + X20 + X8 >= 1
Cover_285: X0 + X1 + X11 + X17 + X18 + X19 + X2 + X20 + X6 + X8 >= 1
Cover_286: X11 + X17 + X18 + X2 >= 1
Cover_287: X1 + X11 + X17 + X18 + X19 + X2 >= 1
Cover_288: X11 + X17 + X18 + X2 >= 1
Cover_289: X0 + X11 + X17 + X18 + X2 + X20 + X6 + X8 >= 1
Cover_29: X16 + X17 + X2 + X20 + X7 + X8 >= 1
Cover_290: X11 + X17 + X18 + X2 >= 1
Cover_291: X11 + X17 + X18 + X2 >= 1
Cover_292: X11 + X17 + X19 + X2 >= 1
Cover_293: X1 + X11 + X17 + X18 + X19 + X2 + X20 + X8 >= 1
Cover_294: X11 >= 1
Cover_295: X11 + X16 + X7 >= 1
Cover_296: X11 + X15 + X17 + X2 >= 1
Cover_297: X11 + X16 + X17 + X2 + X7 >= 1
Cover_298: X11 + X15 + X17 + X7 >= 1
Cover_299: X11 + X16 + X17 + X18 + X2 + X7 >= 1
Cover_3: X1 + X19 + X20 >= 1
Cover_30: X15 + X20 + X8 >= 1
Cover_300: X11 + X16 + X7 >= 1
Cover_301: X16 + X20 + X7 >= 1
Cover_302: X16 + X18 + X20 + X7 + X8 >= 1
Cover_303: X0 + X1 + X16 + X19 + X20 + X6 + X7 + X8 >= 1
Cover_304: X0 + X16 + X20 + X6 + X7 + X8 >= 1
Cover_305: X16 + X7 >= 1
Cover_306: X16 + X18 + X19 + X7 >= 1
Cover_307: X1 + X16 + X19 + X20 + X7 + X8 >= 1
Cover_308: X16 + X17 + X18 + X2 + X7 >= 1
Cover_309: X11 + X15 + X16 + X17 + X18 + X2 + X7 >= 1
Cover_31: X16 + X20 + X7 + X8 >= 1
Cover_310: X17 + X18 + X2 >= 1
Cover_311: X15 + X18 + X2 >= 1
Cover_312: X11 + X16 + X17 + X18 + X2 + X7 >= 1
Cover_313: X17 + X18 + X2 >= 1
Cover_314: X11 + X16 + X17 + X2 + X7 >= 1
Cover_315: X16 + X17 + X18 + X2 + X20 + X7 >= 1
Cover_316: X16 + X17 + X2 + X20 + X7 + X8 >= 1
Cover_317: X0 + X1 + X16 + X17 + X18 + X19 + X2 + X20 + X6 + X7 + X8 >= 1
Cover_318: X16 + X17 + X18 + X2 + X7 >= 1
Cover_319: X1 + X16 + X17 + X18 + X19 + X2 + X7 >= 1
Cover_32: X15 + X2 + X20 + X7 + X8 >= 1
Cover_320: X16 + X17 + X18 + X2 + X7 >= 1
Cover_321: X0 + X16 + X17 + X18 + X2 + X20 + X6 + X7 + X8 >= 1
Cover_322: X16 + X17 + X18 + X2 + X7 >= 1
Cover_323: X16 + X17 + X18 + X2 + X7 >= 1
Cover_324: X16 + X17 + X19 + X2 + X7 >= 1
Cover_325: X1 + X16 + X17 + X18 + X19 + X2 + X20 + X7 + X8 >= 1
Cover_326: X16 + X7 >= 1
Cover_327: X11 + X15 + X16 + X7 >= 1
Cover_328: X15 + X16 + X17 + X2 + X7 >= 1
Cover_329: X17 + X2 >= 1
Cover_33: X11 + X17 + X2 + X20 + X8 >= 1
Cover_330: X15 + X17 >= 1
Cover_331: X11 + X16 + X7 >= 1
Cover_332: X17 + X18 + X2 >= 1
Cover_333: X11 + X16 + X18 + X7 >= 1
Cover_334: X11 + X17 + X2 + X20 >= 1
Cover_335: X11 + X17 + X18 + X2 + X20 + X8 >= 1
Cover_336: X0 + X1 + X11 + X17 + X19 + X2 + X20 + X6 + X8 >= 1
Cover_337: X11 + X17 + X2 >= 1
Cover_338: X1 + X11 + X17 + X19 + X2 >= 1
Cover_339: X11 + X17 + X2 >= 1
Cover_34: X16 + X18 + X20 + X7 + X8 >= 1
Cover_340: X0 + X11 + X17 + X2 + X20 + X6 + X8 >= 1
Cover_341: X11 + X17 + X2 >= 1
Cover_342: X11 + X17 + X2 >= 1
Cover_343: X11 + X17 + X18 + X19 + X2 >= 1
Cover_344: X1 + X11 + X17 + X19 + X2 + X20 + X8 >= 1
Cover_345: X11 + X18 >= 1
Cover_346: X11 + X16 + X18 + X7 >= 1
Cover_347: X11 + X15 + X17 + X18 + X2 >= 1
Cover_348: X11 + X16 + X17 + X18 + X2 + X7 >= 1
Cover_349: X11 + X15 + X17 + X18 + X7 >= 1
Cover_35: X16 + X17 + X2 + X20 + X7 + X8 >= 1
Cover_350: X11 + X16 + X17 + X2 + X7 >= 1
Cover_351: X11 + X16 + X18 + X7 >= 1
Cover_36: X11 + X17 + X18 + X2 + X20 + X8 >= 1
Cover_37: X1 + X19 + X6 >= 1
Cover_38: X0 + X1 + X19 + X20 + X6 + X8 >= 1
Cover_39: X0 + X20 + X6 + X8 >= 1
Cover_4: X20 >= 1
Cover_40: X0 + X1 + X19 + X20 + X6 + X8 >= 1
Cover_41: X1 + X19 + X20 + X6 + X8 >= 1
Cover_42: X0 + X1 + X19 + X20 + X6 + X8 >= 1
Cover_43: X0 + X18 + X20 + X6 + X8 >= 1
Cover_44: X0 + X1 + X17 + X18 + X19 + X2 + X20 + X6 + X8 >= 1
Cover_45: X0 + X1 + X11 + X15 + X17 + X18 + X19 + X2 + X20 + X6 + X8 >= 1
Cover_46: X0 + X1 + X16 + X17 + X18 + X19 + X2 + X20 + X6 + X7 + X8 >= 1
Cover_47: X0 + X1 + X15 + X18 + X19 + X20 + X6 + X8 >= 1
Cover_48: X0 + X1 + X16 + X18 + X19 + X20 + X6 + X7 + X8 >= 1
Cover_49: X0 + X1 + X15 + X18 + X19 + X2 + X20 + X6 + X7 + X8 >= 1
Cover_5: X6 >= 1
Cover_50: X0 + X1 + X11 + X17 + X18 + X19 + X2 + X20 + X6 + X8 >= 1
Cover_51: X0 + X1 + X16 + X19 + X20 + X6 + X7 + X8 >= 1
Cover_52: X0 + X1 + X16 + X17 + X18 + X19 + X2 + X20 + X6 + X7 + X8 >= 1
Cover_53: X0 + X1 + X11 + X17 + X19 + X2 + X20 + X6 + X8 >= 1
Cover_54: X20 >= 1
Cover_55: X18 + X20 + X8 >= 1
Cover_56: X0 + X1 + X19 + X20 + X6 + X8 >= 1
Cover_57: X0 + X20 + X6 + X8 >= 1
Cover_58: X18 + X19 >= 1
Cover_59: X1 + X19 + X20 + X8 >= 1
Cover_6: X20 >= 1
Cover_60: X17 + X18 + X2 >= 1
Cover_61: X11 + X15 + X17 + X18 + X2 >= 1
Cover_62: X16 + X17 + X18 + X2 + X7 >= 1
Cover_63: X15 + X18 + X2 + X7 >= 1
Cover_64: X11 + X17 + X18 + X2 >= 1
Cover_65: X16 + X17 + X18 + X2 + X7 >= 1
Cover_66: X11 + X17 + X2 >= 1
Cover_67: X1 + X19 + X20 >= 1
Cover_68: X1 + X18 + X20 + X8 >= 1
Cover_69: X0 + X20 + X6 + X8 >= 1
Cover_7: X20 >= 1
Cover_70: X0 + X1 + X20 + X6 + X8 >= 1
Cover_71: X1 + X19 >= 1
Cover_72: X18 >= 1
Cover_73: X20 + X8 >= 1
Cover_74: X1 + X17 + X18 + X19 + X2 >= 1
Cover_75: X1 + X11 + X15 + X17 + X18 + X19 + X2 >= 1
Cover_76: X1 + X16 + X17 + X18 + X19 + X2 + X7 >= 1
Cover_77: X1 + X15 + X18 + X19 + X2 + X7 >= 1
Cover_78: X1 + X11 + X17 + X18 + X19 + X2 >= 1
Cover_79: X1 + X16 + X17 + X18 + X19 + X2 + X7 >= 1
Cover_8: X18 + X19 + X20 >= 1
Cover_80: X1 + X11 + X17 + X19 + X2 >= 1
Cover_81: X20 >= 1
Cover_82: X18 + X20 + X8 >= 1
Cover_83: X0 + X1 + X19 + X20 + X6 + X8 >= 1
Cover_84: X0 + X20 + X6 + X8 >= 1
Cover_85: X18 + X19 >= 1
Cover_86: X1 + X19 + X20 + X8 >= 1
Cover_87: X17 + X18 + X2 >= 1
Cover_88: X11 + X15 + X17 + X18 + X2 >= 1
Cover_89: X16 + X17 + X18 + X2 + X7 >= 1
Cover_9: X1 + X19 >= 1
Cover_90: X15 + X18 + X2 + X7 >= 1
Cover_91: X11 + X17 + X18 + X2 >= 1
Cover_92: X16 + X17 + X18 + X2 + X7 >= 1
Cover_93: X11 + X17 + X2 >= 1
Cover_94: X6 >= 1
Cover_95: X0 + X20 + X6 + X8 >= 1
Cover_96: X0 + X1 + X20 + X6 + X8 >= 1
Cover_97: X0 + X20 + X6 + X8 >= 1
Cover_98: X20 + X6 + X8 >= 1
Cover_99: X0 + X20 + X6 + X8 >= 1
Binaries
X0
X1
X10
X11
X12
X13
X14
X15
X16
X17
X18
X19
X2
X20
X21
X22
X23
X3
X4
X5
X6
X7
X8
X9
End
